SECTION Graph
Nodes 179
Edges 293
E 1 2 5
E 2 3 5
E 3 4 5
E 4 5 5
E 5 6 5
E 6 7 5
E 7 8 5
E 8 9 5
E 9 10 5
E 10 11 5
E 11 12 5
E 12 13 5
E 13 14 5
E 14 15 5
E 15 16 5
E 16 17 5
E 17 18 5
E 18 19 5
E 19 20 5
E 20 21 5
E 21 22 5
E 22 23 5
E 23 24 5
E 1 25 13
E 2 26 13
E 3 27 13
E 4 28 13
E 5 29 13
E 6 30 13
E 7 31 13
E 9 33 13
E 10 34 13
E 11 35 13
E 13 37 13
E 14 38 13
E 15 39 13
E 16 40 13
E 17 41 13
E 18 42 13
E 19 43 13
E 22 46 13
E 23 47 13
E 24 48 13
E 25 26 5
E 26 27 5
E 27 28 5
E 28 29 5
E 29 30 5
E 30 31 5
E 31 32 5
E 32 33 5
E 33 34 5
E 34 35 5
E 35 36 5
E 36 37 5
E 37 38 5
E 38 39 5
E 39 40 5
E 40 41 5
E 41 42 5
E 42 43 5
E 43 44 5
E 44 45 5
E 45 46 5
E 46 47 5
E 47 48 5
E 25 49 13
E 26 50 13
E 27 51 13
E 28 52 13
E 29 53 13
E 30 54 13
E 31 55 13
E 32 56 13
E 33 57 13
E 34 58 13
E 35 59 13
E 36 60 13
E 37 61 13
E 38 62 13
E 39 63 13
E 40 64 13
E 41 65 13
E 43 66 13
E 44 67 13
E 46 68 13
E 47 69 13
E 48 70 13
E 49 50 5
E 50 51 5
E 51 52 5
E 52 53 5
E 53 54 5
E 54 55 5
E 55 56 5
E 56 57 5
E 57 58 5
E 58 59 5
E 59 60 5
E 60 61 5
E 61 62 5
E 62 63 5
E 63 64 5
E 64 65 5
E 66 67 5
E 68 69 5
E 69 70 5
E 49 71 13
E 50 72 13
E 51 73 13
E 52 74 13
E 53 75 13
E 55 77 13
E 57 78 13
E 58 79 13
E 59 80 13
E 61 82 13
E 63 84 13
E 65 85 13
E 66 86 13
E 67 87 13
E 68 89 13
E 69 90 13
E 70 91 13
E 71 72 5
E 72 73 5
E 73 74 5
E 74 75 5
E 75 76 5
E 76 77 5
E 78 79 5
E 79 80 5
E 80 81 5
E 81 82 5
E 82 83 5
E 83 84 5
E 86 87 5
E 87 88 5
E 88 89 5
E 89 90 5
E 90 91 5
E 71 92 13
E 72 93 13
E 73 94 13
E 75 96 13
E 76 97 13
E 77 98 13
E 78 99 13
E 79 100 13
E 80 101 13
E 81 102 13
E 82 103 13
E 83 104 13
E 84 105 13
E 85 106 13
E 86 108 13
E 87 109 13
E 88 110 13
E 89 111 13
E 91 113 13
E 92 93 5
E 93 94 5
E 94 95 5
E 95 96 5
E 96 97 5
E 97 98 5
E 99 100 5
E 100 101 5
E 101 102 5
E 102 103 5
E 103 104 5
E 104 105 5
E 106 107 5
E 107 108 5
E 108 109 5
E 109 110 5
E 110 111 5
E 111 112 5
E 112 113 5
E 92 114 13
E 94 116 13
E 95 117 13
E 96 118 13
E 98 120 13
E 99 122 13
E 100 123 13
E 101 124 13
E 103 125 13
E 105 127 13
E 106 129 13
E 107 130 13
E 108 131 13
E 109 132 13
E 110 133 13
E 111 134 13
E 112 135 13
E 113 136 13
E 114 115 5
E 115 116 5
E 116 117 5
E 117 118 5
E 118 119 5
E 119 120 5
E 120 121 5
E 121 122 5
E 122 123 5
E 123 124 5
E 125 126 5
E 126 127 5
E 127 128 5
E 128 129 5
E 129 130 5
E 130 131 5
E 131 132 5
E 132 133 5
E 133 134 5
E 134 135 5
E 135 136 5
E 114 137 13
E 115 138 13
E 116 139 13
E 117 140 13
E 118 141 13
E 119 142 13
E 120 143 13
E 122 144 13
E 123 145 13
E 124 146 13
E 125 147 13
E 126 148 13
E 127 149 13
E 128 150 13
E 129 151 13
E 130 152 13
E 131 153 13
E 132 154 13
E 134 156 13
E 135 157 13
E 136 158 13
E 137 138 5
E 138 139 5
E 139 140 5
E 140 141 5
E 141 142 5
E 142 143 5
E 144 145 5
E 145 146 5
E 147 148 5
E 148 149 5
E 149 150 5
E 150 151 5
E 151 152 5
E 152 153 5
E 153 154 5
E 154 155 5
E 155 156 5
E 156 157 5
E 157 158 5
E 137 159 13
E 138 160 13
E 139 161 13
E 141 162 13
E 143 163 13
E 144 164 13
E 145 165 13
E 146 166 13
E 147 168 13
E 149 170 13
E 151 172 13
E 152 173 13
E 153 174 13
E 154 175 13
E 155 176 13
E 156 177 13
E 157 178 13
E 158 179 13
E 159 160 5
E 160 161 5
E 164 165 5
E 165 166 5
E 166 167 5
E 167 168 5
E 168 169 5
E 169 170 5
E 170 171 5
E 171 172 5
E 172 173 5
E 173 174 5
E 174 175 5
E 175 176 5
E 176 177 5
E 177 178 5
E 178 179 5
END

SECTION Terminals
Terminals 10
T 12
T 54
T 58
T 60
T 62
T 74
T 90
T 93
T 104
T 152
END

EOF
